
;this file is automatically generated: Mon Oct 26 19:31:24 CST 2020

;declarations generated

(declare-fun oclExcludes ( Int Int) Bool)
(declare-fun Cardinality ( Int) Int)
(declare-fun class45_Class45IntAttr1 ( Int) Int)
(declare-fun type_bb067ad5_5236_42be_8f0f_502dd4664060_Class45 ( Int) Bool)
(declare-fun oclSelect ( Int Bool) Int)
(declare-fun Enum0 ( Int) Int)
(declare-fun Enum1 ( Int) Int)
(declare-fun Enum2 ( Int) Int)
(declare-fun container_ ( Int) Int)
(declare-fun oclIncludes ( Int Int) Bool)
(declare-fun obj_9efb1fc2_256a_4df3_8ab4_a8698c8f13e2 ( Int) Int)
(declare-fun ObjAt ( Int Int) Int)

;formula(s) generated
(assert (! (forall ((v Int)) (=> ( type_bb067ad5_5236_42be_8f0f_502dd4664060_Class45 v )  (>= ( class45_Class45IntAttr1 ( obj_9efb1fc2_256a_4df3_8ab4_a8698c8f13e2 v )  )  8))):named l0))
(assert (exists ((o Int)) ( type_bb067ad5_5236_42be_8f0f_502dd4664060_Class45 ( obj_9efb1fc2_256a_4df3_8ab4_a8698c8f13e2 o )  ) ))

 ;end of formula 